
291
500
   400      4
   399      3
   398      2
   397      3
   396      4
   395      2
   394      1
   393      4
   392      3
   391      3
   390      4
   389      2
   388      2
   387      1
   386      5
   385      3
   384      5
   383      1
   382      1
   381      2
   380      4
   379      4
   378      5
   377      4
   376      4
   375      6
   374      4
   372      5
   371      1
   370      2
   369      1
   368      4
   367      4
   366      8
   365      2
   364      2
   363      3
   362      4
   361      3
   359      6
   358      2
   357      3
   356      6
   355      3
   354      2
   353      1
   352      6
   351      3
   350      6
   349      5
   348      8
   347      6
   346      4
   345      4
   344      4
   343      2
   342      1
   341      3
   340      5
   339      4
   338      2
   337      1
   336      5
   335      3
   334      4
   333      4
   332      1
   331      4
   330      2
   329      3
   328      6
   327      1
   326      5
   325      4
   324      2
   323      3
   322      2
   321      2
   320      5
   319      3
   318      1
   317      3
   316      3
   315      5
   314      3
   313      3
   312      4
   311      1
   310      4
   309      3
   308      4
   307      5
   306      3
   305      5
   304      2
   302      3
   301      2
   300      2
   299      1
   298      5
   297      2
   296      4
   295      3
   294      4
   293      4
   292      3
   291      3
   290      4
   288      2
   287      3
   285      2
   284      3
   283      5
   281      4
   280      3
   279      3
   278      3
   277      4
   276      6
   275      2
   274      4
   273      4
   272      3
   271      1
   270      3
   269      2
   268      2
   267      4
   266      5
   265      3
   264      5
   263      2
   262      5
   261      4
   260      4
   259      5
   258      5
   257      3
   256      4
   255      1
   254      3
   253      3
   252      5
   251      3
   250      4
   249      5
   248      4
   247      5
   246      3
   245      1
   244      1
   243      2
   242      1
   241      5
   240      3
   239      4
   238      5
   237      2
   235      6
   234      3
   233      5
   232      4
   231      2
   230      2
   229      1
   228      4
   227      4
   226      2
   225      5
   224      4
   223      3
   222      4
   220      4
   219      4
   218      5
   217      3
   216      7
   215      4
   214      4
   213      3
   212      5
   211      1
   210      4
   209      3
   208      2
   207      4
   206      4
   205      2
   204      6
   203      1
   202      1
   201      3
   200      1
   199      3
   198      2
   197      3
   196      5
   195      6
   194      3
   193      3
   192      3
   191      2
   190      4
   189      8
   188      3
   187      2
   186      6
   185      5
   184      2
   183      7
   182      6
   181      2
   180      2
   179      5
   178      8
   177      5
   176      3
   175      6
   174      4
   173      1
   172      1
   171      1
   170      3
   169      3
   168      9
   167      4
   166      1
   165      5
   164      4
   163      4
   162      5
   161      3
   160      3
   159      3
   158      1
   157      2
   156      6
   155      1
   154      6
   153      1
   152      4
   151      3
   150      2
   149      6
   148      2
   147      1
   146      3
   145      7
   144      1
   143      5
   142      3
   141      2
   140      7
   139      2
   138      4
   137      3
   136      1
   135      6
   134      2
   133      3
   131      2
   130      4
   128      3
   127      2
   126      1
   125      5
   124      3
   123      4
   122      3
   121      6
   120      1
   119      5
   118      2
   117      4
   116      3
   115      2
   114      4
   113      3
   112      2
   111      7
   110      7
   109      3
   108      2
   107      6
   106      4
   105      2
   104      3
   103      2
   102      4
   101      7
   100      4




The initial LP solution: time=0.53


File: BPP_1000_500_0.2_0.8_7.txt  Instance No. 1
Wed Feb 25 13:55:49 2015

LP solution: lpval=502 lpbnd=502

4: 0:1 290:1 obj 1\\
3: 1:1 289:1 obj 1\\
2: 2:1 288:1 obj 1\\
2: 3:1 287:1 obj 1\\
1: 3:1 288:1 obj 1\\
3: 4:1 286:1 obj 1\\
1: 4:1 289:1 obj 1\\
2: 5:1 285:1 obj 1\\
1: 6:1 284:1 obj 1\\
4: 7:1 283:1 obj 1\\
2: 8:1 282:1 obj 1\\
1: 8:1 283:1 obj 1\\
3: 9:1 281:1 obj 1\\
3: 10:1 280:1 obj 1\\
2: 11:1 279:1 obj 1\\
2: 12:1 278:1 obj 1\\
1: 13:1 277:1 obj 1\\
1: 14:1 obj 1\\
4: 14:1 276:1 obj 1\\
1: 15:1 obj 1\\
2: 15:1 275:1 obj 1\\
2: 16:1 obj 1\\
3: 16:1 274:1 obj 1\\
1: 17:1 273:1 obj 1\\
2: 19:1 271:1 obj 1\\
1: 20:1 obj 1\\
1: 20:1 270:1 obj 1\\
2: 20:1 272:1 obj 1\\
3: 21:1 269:1 obj 1\\
3: 22:1 268:1 obj 1\\
2: 22:1 273:1 obj 1\\
4: 23:1 267:1 obj 1\\
1: 24:1 obj 1\\
3: 24:1 266:1 obj 1\\
5: 25:1 265:1 obj 1\\
1: 25:1 273:1 obj 1\\
1: 26:1 264:1 obj 1\\
3: 26:1 269:1 obj 1\\
3: 27:1 262:1 obj 1\\
2: 27:1 263:1 obj 1\\
2: 29:1 261:1 obj 1\\
1: 30:1 260:1 obj 1\\
2: 31:1 260:1 obj 1\\
2: 31:1 261:1 obj 1\\
1: 32:1 obj 1\\
3: 32:1 259:1 obj 1\\
1: 33:1 obj 1\\
2: 33:1 258:1 obj 1\\
5: 33:1 271:1 obj 1\\
2: 34:1 257:1 obj 1\\
1: 35:1 obj 1\\
1: 35:1 256:1 obj 1\\
3: 36:1 255:1 obj 1\\
4: 37:1 254:1 obj 1\\
1: 38:1 obj 1\\
2: 38:1 253:1 obj 1\\
2: 39:1 251:1 obj 1\\
4: 39:1 252:1 obj 1\\
2: 40:1 250:1 obj 1\\
3: 41:1 249:1 obj 1\\
1: 42:1 248:1 obj 1\\
2: 42:1 249:1 obj 1\\
3: 42:1 252:1 obj 1\\
2: 44:1 246:1 obj 1\\
1: 45:1 245:1 obj 1\\
1: 46:1 obj 1\\
2: 46:1 244:1 obj 1\\
3: 46:1 246:1 obj 1\\
3: 47:1 243:1 obj 1\\
1: 48:1 242:1 obj 1\\
3: 48:1 243:1 obj 1\\
2: 48:1 247:1 obj 1\\
3: 49:1 241:1 obj 1\\
2: 49:1 247:1 obj 1\\
4: 50:1 240:1 obj 1\\
3: 50:1 247:1 obj 1\\
1: 50:1 250:1 obj 1\\
1: 51:1 239:1 obj 1\\
4: 51:1 257:1 obj 1\\
4: 52:1 238:1 obj 1\\
1: 53:1 237:1 obj 1\\
3: 53:1 238:1 obj 1\\
4: 54:1 236:1 obj 1\\
2: 55:1 235:1 obj 1\\
1: 56:1 234:1 obj 1\\
3: 57:1 233:1 obj 1\\
3: 58:1 232:1 obj 1\\
2: 58:1 236:1 obj 1\\
1: 59:1 obj 1\\
3: 59:1 231:1 obj 1\\
2: 60:1 230:1 obj 1\\
1: 61:1 229:1 obj 1\\
4: 62:1 228:1 obj 1\\
1: 62:1 230:1 obj 1\\
2: 63:1 227:1 obj 1\\
1: 64:1 226:1 obj 1\\
3: 64:1 227:1 obj 1\\
4: 65:1 225:1 obj 1\\
1: 66:1 224:1 obj 1\\
3: 67:1 223:1 obj 1\\
1: 67:1 224:1 obj 1\\
2: 68:1 222:1 obj 1\\
1: 69:1 221:1 obj 1\\
2: 69:1 224:1 obj 1\\
1: 70:1 220:1 obj 1\\
1: 70:1 222:1 obj 1\\
4: 70:1 224:1 obj 1\\
1: 71:1 219:1 obj 1\\
4: 72:1 218:1 obj 1\\
1: 72:1 224:1 obj 1\\
4: 73:1 217:1 obj 1\\
2: 74:1 216:1 obj 1\\
3: 75:1 215:1 obj 1\\
2: 76:1 214:1 obj 1\\
2: 77:1 213:1 obj 1\\
2: 78:1 212:1 obj 1\\
3: 78:1 213:1 obj 1\\
2: 79:1 211:1 obj 1\\
1: 79:1 214:1 obj 1\\
1: 80:1 210:1 obj 1\\
3: 81:1 209:1 obj 1\\
2: 82:1 208:1 obj 1\\
1: 82:1 209:1 obj 1\\
5: 83:1 207:1 obj 1\\
3: 84:1 206:1 obj 1\\
2: 85:1 205:1 obj 1\\
1: 85:1 206:1 obj 1\\
3: 86:1 204:1 obj 1\\
1: 86:1 210:1 obj 1\\
1: 87:1 203:1 obj 1\\
4: 88:1 202:1 obj 1\\
2: 89:1 201:1 obj 1\\
1: 89:1 203:1 obj 1\\
3: 90:1 200:1 obj 1\\
1: 90:1 203:1 obj 1\\
3: 91:1 199:1 obj 1\\
2: 91:1 206:1 obj 1\\
3: 92:1 198:1 obj 1\\
5: 93:1 197:1 obj 1\\
2: 95:1 194:1 obj 1\\
1: 95:1 203:1 obj 1\\
1: 96:1 193:1 obj 1\\
2: 97:1 193:1 obj 1\\
1: 98:1 191:1 obj 1\\
1: 99:1 190:1 obj 1\\
2: 99:1 191:1 obj 1\\
1: 99:1 196:1 obj 1\\
1: 99:1 197:1 obj 1\\
1: 100:1 189:1 obj 1\\
1: 100:1 203:1 obj 1\\
3: 101:1 188:1 obj 1\\
2: 102:1 187:1 obj 1\\
1: 102:1 196:1 obj 1\\
4: 103:1 186:1 obj 1\\
4: 104:1 185:1 obj 1\\
3: 105:1 196:1 obj 1\\
3: 106:1 183:1 obj 1\\
4: 107:1 182:1 obj 1\\
2: 108:1 180:1 obj 1\\
3: 109:1 179:1 obj 1\\
2: 110:1 177:1 obj 1\\
3: 111:1 176:1 obj 1\\
3: 112:1 175:1 obj 1\\
2: 112:1 176:1 obj 1\\
2: 113:1 173:1 obj 1\\
3: 114:1 172:1 obj 1\\
1: 115:1 172:1 obj 1\\
2: 115:1 174:1 obj 1\\
3: 116:1 171:1 obj 1\\
2: 117:1 170:1 obj 1\\
1: 117:1 171:1 obj 1\\
4: 118:1 169:1 obj 1\\
2: 119:1 168:1 obj 1\\
2: 120:1 167:1 obj 1\\
2: 120:1 168:1 obj 1\\
3: 121:1 166:1 obj 1\\
3: 122:1 165:1 obj 1\\
1: 123:1 164:1 obj 1\\
2: 124:1 163:1 obj 1\\
1: 124:1 165:1 obj 1\\
2: 125:1 162:1 obj 1\\
2: 126:1 161:1 obj 1\\
4: 127:1 160:1 obj 1\\
3: 128:1 159:1 obj 1\\
1: 128:1 160:1 obj 1\\
1: 128:1 176:1 obj 1\\
3: 129:1 158:1 obj 1\\
2: 130:1 158:1 obj 1\\
2: 130:1 161:1 obj 1\\
1: 130:1 168:1 obj 1\\
2: 131:1 157:1 obj 1\\
4: 132:1 156:1 obj 1\\
4: 133:1 155:1 obj 1\\
1: 134:1 154:1 obj 1\\
3: 134:1 174:1 obj 1\\
5: 135:1 153:1 obj 1\\
1: 136:1 152:1 obj 1\\
1: 136:1 158:1 obj 1\\
1: 136:1 176:1 obj 1\\
2: 136:1 209:1 obj 1\\
2: 137:1 151:1 obj 1\\
1: 137:1 188:1 obj 1\\
1: 138:1 150:1 obj 1\\
1: 138:1 177:1 obj 1\\
1: 138:1 214:1 obj 1\\
1: 138:1 216:1 obj 1\\
1: 139:1 149:1 obj 1\\
3: 140:1 148:1 obj 1\\
3: 141:1 147:1 obj 1\\
3: 142:1 146:1 obj 1\\
2: 142:1 147:1 obj 1\\
3: 143:1 145:1 obj 1\\
2: 144:2 obj 1\\
1: 145:2 obj 1\\
1: 177:1 209:1 288:1 obj 1\\
3: 178:1 210:1 289:1 obj 1\\
1: 178:1 214:1 284:1 obj 1\\
2: 180:1 214:1 280:1 obj 1\\
1: 181:1 210:1 284:1 obj 1\\
1: 195:1 203:1 279:1 obj 1\\
1: 195:2 284:1 obj 1\\
2: 217:1 229:1 230:1 obj 1\\
1: 238:-1 obj 0\\
2: 246:-1 obj 0\\
1: 260:-1 obj 0\\
2: 271:-1 obj 0\\
1: 132:1 166:1 obj 1\\
0.5: 146:2 obj 1\\
0.5: 156:2 obj 1\\
1: 101:1 192:1 obj 1\\
2: 113:1 184:1 obj 1\\
1: 121:1 170:1 obj 1\\
1: 154:2 obj 1\\
1: 10:1 283:1 obj 1\\
1: 18:1 280:1 obj 1\\
1: 21:1 280:1 obj 1\\
1: 28:1 279:1 obj 1\\
3: 43:1 279:1 obj 1\\
2: 94:1 203:1 obj 1\\
1: 96:1 214:1 obj 1\\
2: 188:1 215:1 277:1 obj 1\\
1: 51:1 242:1 obj 1\\
1: 63:1 229:1 obj 1\\
1: 117:1 180:1 obj 1\\
2: 118:1 173:1 obj 1\\






File: BPP_1000_500_0.2_0.8_7.txt  Instance No. 1
Wed Feb 25 13:55:49 2015

LP0 Time: 0.53 IPTime: 0.53 The best integer solution (502):

4: 0:1 290:1 obj 1\\
3: 1:1 289:1 obj 1\\
2: 2:1 288:1 obj 1\\
2: 3:1 287:1 obj 1\\
1: 3:1 288:1 obj 1\\
3: 4:1 286:1 obj 1\\
1: 4:1 289:1 obj 1\\
2: 5:1 285:1 obj 1\\
1: 6:1 284:1 obj 1\\
4: 7:1 283:1 obj 1\\
2: 8:1 282:1 obj 1\\
1: 8:1 283:1 obj 1\\
3: 9:1 281:1 obj 1\\
3: 10:1 280:1 obj 1\\
2: 11:1 279:1 obj 1\\
2: 12:1 278:1 obj 1\\
1: 13:1 277:1 obj 1\\
1: 14:1 obj 1\\
4: 14:1 276:1 obj 1\\
1: 15:1 obj 1\\
2: 15:1 275:1 obj 1\\
2: 16:1 obj 1\\
3: 16:1 274:1 obj 1\\
1: 17:1 273:1 obj 1\\
2: 19:1 271:1 obj 1\\
1: 20:1 obj 1\\
1: 20:1 270:1 obj 1\\
2: 20:1 272:1 obj 1\\
3: 21:1 269:1 obj 1\\
3: 22:1 268:1 obj 1\\
2: 22:1 273:1 obj 1\\
4: 23:1 267:1 obj 1\\
1: 24:1 obj 1\\
3: 24:1 266:1 obj 1\\
5: 25:1 265:1 obj 1\\
1: 25:1 273:1 obj 1\\
1: 26:1 264:1 obj 1\\
3: 26:1 269:1 obj 1\\
3: 27:1 262:1 obj 1\\
2: 27:1 263:1 obj 1\\
2: 29:1 261:1 obj 1\\
1: 30:1 260:1 obj 1\\
2: 31:1 260:1 obj 1\\
2: 31:1 261:1 obj 1\\
1: 32:1 obj 1\\
3: 32:1 259:1 obj 1\\
1: 33:1 obj 1\\
2: 33:1 258:1 obj 1\\
5: 33:1 271:1 obj 1\\
2: 34:1 257:1 obj 1\\
1: 35:1 obj 1\\
1: 35:1 256:1 obj 1\\
3: 36:1 255:1 obj 1\\
4: 37:1 254:1 obj 1\\
1: 38:1 obj 1\\
2: 38:1 253:1 obj 1\\
2: 39:1 251:1 obj 1\\
4: 39:1 252:1 obj 1\\
2: 40:1 250:1 obj 1\\
3: 41:1 249:1 obj 1\\
1: 42:1 248:1 obj 1\\
2: 42:1 249:1 obj 1\\
3: 42:1 252:1 obj 1\\
2: 44:1 246:1 obj 1\\
1: 45:1 245:1 obj 1\\
1: 46:1 obj 1\\
2: 46:1 244:1 obj 1\\
3: 46:1 246:1 obj 1\\
3: 47:1 243:1 obj 1\\
1: 48:1 242:1 obj 1\\
3: 48:1 243:1 obj 1\\
2: 48:1 247:1 obj 1\\
3: 49:1 241:1 obj 1\\
2: 49:1 247:1 obj 1\\
4: 50:1 240:1 obj 1\\
3: 50:1 247:1 obj 1\\
1: 50:1 250:1 obj 1\\
1: 51:1 239:1 obj 1\\
4: 51:1 257:1 obj 1\\
4: 52:1 238:1 obj 1\\
1: 53:1 237:1 obj 1\\
3: 53:1 238:1 obj 1\\
4: 54:1 236:1 obj 1\\
2: 55:1 235:1 obj 1\\
1: 56:1 234:1 obj 1\\
3: 57:1 233:1 obj 1\\
3: 58:1 232:1 obj 1\\
2: 58:1 236:1 obj 1\\
1: 59:1 obj 1\\
3: 59:1 231:1 obj 1\\
2: 60:1 230:1 obj 1\\
1: 61:1 229:1 obj 1\\
4: 62:1 228:1 obj 1\\
1: 62:1 230:1 obj 1\\
2: 63:1 227:1 obj 1\\
1: 64:1 226:1 obj 1\\
3: 64:1 227:1 obj 1\\
4: 65:1 225:1 obj 1\\
1: 66:1 224:1 obj 1\\
3: 67:1 223:1 obj 1\\
1: 67:1 224:1 obj 1\\
2: 68:1 222:1 obj 1\\
1: 69:1 221:1 obj 1\\
2: 69:1 224:1 obj 1\\
1: 70:1 220:1 obj 1\\
1: 70:1 222:1 obj 1\\
4: 70:1 224:1 obj 1\\
1: 71:1 219:1 obj 1\\
4: 72:1 218:1 obj 1\\
1: 72:1 224:1 obj 1\\
4: 73:1 217:1 obj 1\\
2: 74:1 216:1 obj 1\\
3: 75:1 215:1 obj 1\\
2: 76:1 214:1 obj 1\\
2: 77:1 213:1 obj 1\\
2: 78:1 212:1 obj 1\\
3: 78:1 213:1 obj 1\\
2: 79:1 211:1 obj 1\\
1: 79:1 214:1 obj 1\\
1: 80:1 210:1 obj 1\\
3: 81:1 209:1 obj 1\\
2: 82:1 208:1 obj 1\\
1: 82:1 209:1 obj 1\\
5: 83:1 207:1 obj 1\\
3: 84:1 206:1 obj 1\\
2: 85:1 205:1 obj 1\\
1: 85:1 206:1 obj 1\\
3: 86:1 204:1 obj 1\\
1: 86:1 210:1 obj 1\\
1: 87:1 203:1 obj 1\\
4: 88:1 202:1 obj 1\\
2: 89:1 201:1 obj 1\\
1: 89:1 203:1 obj 1\\
3: 90:1 200:1 obj 1\\
1: 90:1 203:1 obj 1\\
3: 91:1 199:1 obj 1\\
2: 91:1 206:1 obj 1\\
3: 92:1 198:1 obj 1\\
5: 93:1 197:1 obj 1\\
2: 95:1 194:1 obj 1\\
1: 95:1 203:1 obj 1\\
1: 96:1 193:1 obj 1\\
2: 97:1 193:1 obj 1\\
1: 98:1 191:1 obj 1\\
1: 99:1 190:1 obj 1\\
2: 99:1 191:1 obj 1\\
1: 99:1 196:1 obj 1\\
1: 99:1 197:1 obj 1\\
1: 100:1 189:1 obj 1\\
1: 100:1 203:1 obj 1\\
3: 101:1 188:1 obj 1\\
2: 102:1 187:1 obj 1\\
1: 102:1 196:1 obj 1\\
4: 103:1 186:1 obj 1\\
4: 104:1 185:1 obj 1\\
3: 105:1 196:1 obj 1\\
3: 106:1 183:1 obj 1\\
4: 107:1 182:1 obj 1\\
2: 108:1 180:1 obj 1\\
3: 109:1 179:1 obj 1\\
2: 110:1 177:1 obj 1\\
3: 111:1 176:1 obj 1\\
3: 112:1 175:1 obj 1\\
2: 112:1 176:1 obj 1\\
2: 113:1 173:1 obj 1\\
3: 114:1 172:1 obj 1\\
1: 115:1 172:1 obj 1\\
2: 115:1 174:1 obj 1\\
3: 116:1 171:1 obj 1\\
2: 117:1 170:1 obj 1\\
1: 117:1 171:1 obj 1\\
4: 118:1 169:1 obj 1\\
2: 119:1 168:1 obj 1\\
2: 120:1 167:1 obj 1\\
2: 120:1 168:1 obj 1\\
3: 121:1 166:1 obj 1\\
3: 122:1 165:1 obj 1\\
1: 123:1 164:1 obj 1\\
2: 124:1 163:1 obj 1\\
1: 124:1 165:1 obj 1\\
2: 125:1 162:1 obj 1\\
2: 126:1 161:1 obj 1\\
4: 127:1 160:1 obj 1\\
3: 128:1 159:1 obj 1\\
1: 128:1 160:1 obj 1\\
1: 128:1 176:1 obj 1\\
3: 129:1 158:1 obj 1\\
2: 130:1 158:1 obj 1\\
2: 130:1 161:1 obj 1\\
1: 130:1 168:1 obj 1\\
2: 131:1 157:1 obj 1\\
4: 132:1 156:1 obj 1\\
4: 133:1 155:1 obj 1\\
1: 134:1 154:1 obj 1\\
3: 134:1 174:1 obj 1\\
5: 135:1 153:1 obj 1\\
1: 136:1 152:1 obj 1\\
1: 136:1 158:1 obj 1\\
1: 136:1 176:1 obj 1\\
2: 136:1 209:1 obj 1\\
2: 137:1 151:1 obj 1\\
1: 137:1 188:1 obj 1\\
1: 138:1 150:1 obj 1\\
1: 138:1 177:1 obj 1\\
1: 138:1 214:1 obj 1\\
1: 138:1 216:1 obj 1\\
1: 139:1 149:1 obj 1\\
3: 140:1 148:1 obj 1\\
3: 141:1 147:1 obj 1\\
3: 142:1 146:1 obj 1\\
2: 142:1 147:1 obj 1\\
3: 143:1 145:1 obj 1\\
2: 144:2 obj 1\\
1: 145:2 obj 1\\
1: 177:1 209:1 288:1 obj 1\\
3: 178:1 210:1 289:1 obj 1\\
1: 178:1 214:1 284:1 obj 1\\
2: 180:1 214:1 280:1 obj 1\\
1: 181:1 210:1 284:1 obj 1\\
1: 195:1 203:1 279:1 obj 1\\
1: 195:2 284:1 obj 1\\
2: 217:1 229:1 230:1 obj 1\\
1: 132:1 166:1 obj 1\\
1: 101:1 192:1 obj 1\\
2: 113:1 184:1 obj 1\\
1: 121:1 170:1 obj 1\\
1: 154:2 obj 1\\
1: 10:1 283:1 obj 1\\
1: 18:1 280:1 obj 1\\
1: 21:1 280:1 obj 1\\
1: 28:1 279:1 obj 1\\
3: 43:1 279:1 obj 1\\
2: 94:1 203:1 obj 1\\
1: 96:1 214:1 obj 1\\
2: 188:1 215:1 277:1 obj 1\\
1: 51:1 242:1 obj 1\\
1: 63:1 229:1 obj 1\\
1: 117:1 180:1 obj 1\\
2: 118:1 173:1 obj 1\\
1: 146:1 156:1 obj 1\\



The last LP solution 


File: BPP_1000_500_0.2_0.8_7.txt  Instance No. 1
Wed Feb 25 13:55:49 2015

LP solution: lpval=502 lpbnd=502

4: 0:1 290:1 obj 1\\
3: 1:1 289:1 obj 1\\
2: 2:1 288:1 obj 1\\
2: 3:1 287:1 obj 1\\
1: 3:1 288:1 obj 1\\
3: 4:1 286:1 obj 1\\
1: 4:1 289:1 obj 1\\
2: 5:1 285:1 obj 1\\
1: 6:1 284:1 obj 1\\
4: 7:1 283:1 obj 1\\
2: 8:1 282:1 obj 1\\
1: 8:1 283:1 obj 1\\
3: 9:1 281:1 obj 1\\
3: 10:1 280:1 obj 1\\
2: 11:1 279:1 obj 1\\
2: 12:1 278:1 obj 1\\
1: 13:1 277:1 obj 1\\
1: 14:1 obj 1\\
4: 14:1 276:1 obj 1\\
1: 15:1 obj 1\\
2: 15:1 275:1 obj 1\\
2: 16:1 obj 1\\
3: 16:1 274:1 obj 1\\
1: 17:1 273:1 obj 1\\
2: 19:1 271:1 obj 1\\
1: 20:1 obj 1\\
1: 20:1 270:1 obj 1\\
2: 20:1 272:1 obj 1\\
3: 21:1 269:1 obj 1\\
3: 22:1 268:1 obj 1\\
2: 22:1 273:1 obj 1\\
4: 23:1 267:1 obj 1\\
1: 24:1 obj 1\\
3: 24:1 266:1 obj 1\\
5: 25:1 265:1 obj 1\\
1: 25:1 273:1 obj 1\\
1: 26:1 264:1 obj 1\\
3: 26:1 269:1 obj 1\\
3: 27:1 262:1 obj 1\\
2: 27:1 263:1 obj 1\\
2: 29:1 261:1 obj 1\\
1: 30:1 260:1 obj 1\\
2: 31:1 260:1 obj 1\\
2: 31:1 261:1 obj 1\\
1: 32:1 obj 1\\
3: 32:1 259:1 obj 1\\
1: 33:1 obj 1\\
2: 33:1 258:1 obj 1\\
5: 33:1 271:1 obj 1\\
2: 34:1 257:1 obj 1\\
1: 35:1 obj 1\\
1: 35:1 256:1 obj 1\\
3: 36:1 255:1 obj 1\\
4: 37:1 254:1 obj 1\\
1: 38:1 obj 1\\
2: 38:1 253:1 obj 1\\
2: 39:1 251:1 obj 1\\
4: 39:1 252:1 obj 1\\
2: 40:1 250:1 obj 1\\
3: 41:1 249:1 obj 1\\
1: 42:1 248:1 obj 1\\
2: 42:1 249:1 obj 1\\
3: 42:1 252:1 obj 1\\
2: 44:1 246:1 obj 1\\
1: 45:1 245:1 obj 1\\
1: 46:1 obj 1\\
2: 46:1 244:1 obj 1\\
3: 46:1 246:1 obj 1\\
3: 47:1 243:1 obj 1\\
1: 48:1 242:1 obj 1\\
3: 48:1 243:1 obj 1\\
2: 48:1 247:1 obj 1\\
3: 49:1 241:1 obj 1\\
2: 49:1 247:1 obj 1\\
4: 50:1 240:1 obj 1\\
3: 50:1 247:1 obj 1\\
1: 50:1 250:1 obj 1\\
1: 51:1 239:1 obj 1\\
4: 51:1 257:1 obj 1\\
4: 52:1 238:1 obj 1\\
1: 53:1 237:1 obj 1\\
3: 53:1 238:1 obj 1\\
4: 54:1 236:1 obj 1\\
2: 55:1 235:1 obj 1\\
1: 56:1 234:1 obj 1\\
3: 57:1 233:1 obj 1\\
3: 58:1 232:1 obj 1\\
2: 58:1 236:1 obj 1\\
1: 59:1 obj 1\\
3: 59:1 231:1 obj 1\\
2: 60:1 230:1 obj 1\\
1: 61:1 229:1 obj 1\\
4: 62:1 228:1 obj 1\\
1: 62:1 230:1 obj 1\\
2: 63:1 227:1 obj 1\\
1: 64:1 226:1 obj 1\\
3: 64:1 227:1 obj 1\\
4: 65:1 225:1 obj 1\\
1: 66:1 224:1 obj 1\\
3: 67:1 223:1 obj 1\\
1: 67:1 224:1 obj 1\\
2: 68:1 222:1 obj 1\\
1: 69:1 221:1 obj 1\\
2: 69:1 224:1 obj 1\\
1: 70:1 220:1 obj 1\\
1: 70:1 222:1 obj 1\\
4: 70:1 224:1 obj 1\\
1: 71:1 219:1 obj 1\\
4: 72:1 218:1 obj 1\\
1: 72:1 224:1 obj 1\\
4: 73:1 217:1 obj 1\\
2: 74:1 216:1 obj 1\\
3: 75:1 215:1 obj 1\\
2: 76:1 214:1 obj 1\\
2: 77:1 213:1 obj 1\\
2: 78:1 212:1 obj 1\\
3: 78:1 213:1 obj 1\\
2: 79:1 211:1 obj 1\\
1: 79:1 214:1 obj 1\\
1: 80:1 210:1 obj 1\\
3: 81:1 209:1 obj 1\\
2: 82:1 208:1 obj 1\\
1: 82:1 209:1 obj 1\\
5: 83:1 207:1 obj 1\\
3: 84:1 206:1 obj 1\\
2: 85:1 205:1 obj 1\\
1: 85:1 206:1 obj 1\\
3: 86:1 204:1 obj 1\\
1: 86:1 210:1 obj 1\\
1: 87:1 203:1 obj 1\\
4: 88:1 202:1 obj 1\\
2: 89:1 201:1 obj 1\\
1: 89:1 203:1 obj 1\\
3: 90:1 200:1 obj 1\\
1: 90:1 203:1 obj 1\\
3: 91:1 199:1 obj 1\\
2: 91:1 206:1 obj 1\\
3: 92:1 198:1 obj 1\\
5: 93:1 197:1 obj 1\\
2: 95:1 194:1 obj 1\\
1: 95:1 203:1 obj 1\\
1: 96:1 193:1 obj 1\\
2: 97:1 193:1 obj 1\\
1: 98:1 191:1 obj 1\\
1: 99:1 190:1 obj 1\\
2: 99:1 191:1 obj 1\\
1: 99:1 196:1 obj 1\\
1: 99:1 197:1 obj 1\\
1: 100:1 189:1 obj 1\\
1: 100:1 203:1 obj 1\\
3: 101:1 188:1 obj 1\\
2: 102:1 187:1 obj 1\\
1: 102:1 196:1 obj 1\\
4: 103:1 186:1 obj 1\\
4: 104:1 185:1 obj 1\\
3: 105:1 196:1 obj 1\\
3: 106:1 183:1 obj 1\\
4: 107:1 182:1 obj 1\\
2: 108:1 180:1 obj 1\\
3: 109:1 179:1 obj 1\\
2: 110:1 177:1 obj 1\\
3: 111:1 176:1 obj 1\\
3: 112:1 175:1 obj 1\\
2: 112:1 176:1 obj 1\\
2: 113:1 173:1 obj 1\\
3: 114:1 172:1 obj 1\\
1: 115:1 172:1 obj 1\\
2: 115:1 174:1 obj 1\\
3: 116:1 171:1 obj 1\\
2: 117:1 170:1 obj 1\\
1: 117:1 171:1 obj 1\\
4: 118:1 169:1 obj 1\\
2: 119:1 168:1 obj 1\\
2: 120:1 167:1 obj 1\\
2: 120:1 168:1 obj 1\\
3: 121:1 166:1 obj 1\\
3: 122:1 165:1 obj 1\\
1: 123:1 164:1 obj 1\\
2: 124:1 163:1 obj 1\\
1: 124:1 165:1 obj 1\\
2: 125:1 162:1 obj 1\\
2: 126:1 161:1 obj 1\\
4: 127:1 160:1 obj 1\\
3: 128:1 159:1 obj 1\\
1: 128:1 160:1 obj 1\\
1: 128:1 176:1 obj 1\\
3: 129:1 158:1 obj 1\\
2: 130:1 158:1 obj 1\\
2: 130:1 161:1 obj 1\\
1: 130:1 168:1 obj 1\\
2: 131:1 157:1 obj 1\\
4: 132:1 156:1 obj 1\\
4: 133:1 155:1 obj 1\\
1: 134:1 154:1 obj 1\\
3: 134:1 174:1 obj 1\\
5: 135:1 153:1 obj 1\\
1: 136:1 152:1 obj 1\\
1: 136:1 158:1 obj 1\\
1: 136:1 176:1 obj 1\\
2: 136:1 209:1 obj 1\\
2: 137:1 151:1 obj 1\\
1: 137:1 188:1 obj 1\\
1: 138:1 150:1 obj 1\\
1: 138:1 177:1 obj 1\\
1: 138:1 214:1 obj 1\\
1: 138:1 216:1 obj 1\\
1: 139:1 149:1 obj 1\\
3: 140:1 148:1 obj 1\\
3: 141:1 147:1 obj 1\\
3: 142:1 146:1 obj 1\\
2: 142:1 147:1 obj 1\\
3: 143:1 145:1 obj 1\\
2: 144:2 obj 1\\
1: 145:2 obj 1\\
1: 177:1 209:1 288:1 obj 1\\
3: 178:1 210:1 289:1 obj 1\\
1: 178:1 214:1 284:1 obj 1\\
2: 180:1 214:1 280:1 obj 1\\
1: 181:1 210:1 284:1 obj 1\\
1: 195:1 203:1 279:1 obj 1\\
1: 195:2 284:1 obj 1\\
2: 217:1 229:1 230:1 obj 1\\
1: 238:-1 obj 0\\
2: 246:-1 obj 0\\
1: 260:-1 obj 0\\
2: 271:-1 obj 0\\
1: 132:1 166:1 obj 1\\
0.5: 146:2 obj 1\\
0.5: 156:2 obj 1\\
1: 101:1 192:1 obj 1\\
2: 113:1 184:1 obj 1\\
1: 121:1 170:1 obj 1\\
1: 154:2 obj 1\\
1: 10:1 283:1 obj 1\\
1: 18:1 280:1 obj 1\\
1: 21:1 280:1 obj 1\\
1: 28:1 279:1 obj 1\\
3: 43:1 279:1 obj 1\\
2: 94:1 203:1 obj 1\\
1: 96:1 214:1 obj 1\\
2: 188:1 215:1 277:1 obj 1\\
1: 51:1 242:1 obj 1\\
1: 63:1 229:1 obj 1\\
1: 117:1 180:1 obj 1\\
2: 118:1 173:1 obj 1\\



